NAME : BHR105C.1709661.tour
COMMENT : Cost = 0_1709661
COMMENT : Found by LKH [Keld Helsgaun] Tue Apr 25 18:35:34 2017
TYPE : TOUR
DIMENSION : 116
TOUR_SECTION
1
28
13
30
80
4
27
104
96
99
100
95
7
61
90
112
66
31
82
51
103
29
22
58
42
57
75
106
73
16
45
87
44
14
102
64
65
12
91
11
33
107
40
24
68
23
5
25
81
105
43
15
39
88
38
92
101
59
111
89
52
21
67
36
78
108
46
37
20
50
47
49
109
32
70
77
54
114
53
83
8
19
115
93
3
76
74
41
55
56
26
110
60
6
84
62
17
86
98
97
116
34
72
10
79
35
69
2
71
113
48
63
9
85
18
94
-1
EOF
